1000
[207,208,209,210,211,213,215,218,221,222,223,224,226,227,228,229,234,238,239,240,243,244,245,247,248,254,256,257,258,261,262,263,265,268,271,281,292,293,297,298,304,309,310,311,314,319,322,324,334,339,349,355,356,358,363,364,365,366,367,368,370,371,374,376,379,380,381,382,383,384,387,394,395,397,398,400,401,402,403,406,408,414,420,421,424,426,435,436,437,438,441,442,445,446,447,449,450,453,456,457,459,462,463,465,467,468,470,472,474,478,479,484,487,488,490,492,493,494,496,502,507,513,514,516,517,518,521,522,523,527,528,530,532,533,535,539,540,541,542,544,545,546,547,549,550,551,553,563,564,565,568,570,573,574,579,580,582,586,590,591,592,595,596,600,601,602,604,606,607,608,612,613,614,617,618,627,628,629,631,635,636,640,641,645,646,649,650,652,656,657,658,659,661,662,666,671,673,676,679,683,686,687,688,689,692,693,694,695,700,711,714,718,720,722,724,727,730,733,734,743,745,748,752,754,755,758,763,768,769,770,775,777,779,780,781,783,786,793,796]
[3,1,1,1,1,1,2,2,1,1,1,2,1,1,1,1,1,1,1,1,1,3,1,1,1,1,1,1,1,1,1,1,1,1,1,1,1,1,1,1,1,1,1,2,1,1,1,1,2,2,1,1,1,1,2,2,2,2,1,1,1,1,1,1,2,2,1,1,1,1,1,1,2,1,1,1,1,1,1,1,1,1,1,2,2,1,4,1,1,1,1,1,1,2,1,1,1,1,1,1,1,2,1,1,3,1,1,1,1,2,1,1,1,2,1,1,1,1,1,1,1,1,3,1,1,1,1,1,2,1,1,1,1,1,4,1,1,1,2,1,1,1,1,1,1,1,1,1,1,3,1,3,1,1,1,1,1,1,1,1,1,1,3,2,1,1,1,1,2,1,1,2,2,1,2,1,2,1,1,1,1,1,1,1,1,2,1,1,1,1,1,1,1,2,3,1,1,2,1,1,1,1,1,1,1,1,1,1,1,1,1,1,2,1,3,1,2,1,1,1,2,1,1,2,1,1,1,1,2,1,1,1,2,1,2,1,1,1,1]
